15 2 
1823	1823	
241	296	297	
138	222	242	
55	409	415	
213	814	866	
978	757	774	
482	961	987	
284	721	721	
79	50	53	
591	633	694	
324	601	649	
295	353	378	
61	183	185	
125	325	325	
847	199	209	
507	770	825	
